% Instancia problemática tipo: TOPOLOGIA_IMPOSIBLE
% Razón: Nodos críticos aislados sin conectividad
% Demanda total: 5471.04
% Suministro total: 6565.26
% Factor holgura: 1.2

nP = 3;
nT = 5;
nC1 = 6;
nC2 = 8;
nA = 50;
nD = 3;

arc_from = [3, 3, 3, 1, 1, 4, 8, 7, 4, 6, 4, 6, 5, 5, 6, 5, 5, 8, 6, 4, 9, 9, 9, 9, 9, 10, 10, 10, 10, 10, 11, 11, 11, 11, 11, 12, 12, 12, 12, 12, 13, 13, 13, 13, 13, 14, 14, 14, 14, 14];
arc_to = [7, 5, 6, 7, 8, 14, 10, 13, 12, 9, 10, 12, 10, 9, 11, 14, 12, 12, 14, 9, 15, 16, 19, 20, 21, 15, 16, 19, 20, 21, 15, 16, 19, 20, 21, 15, 16, 19, 20, 21, 15, 16, 19, 20, 21, 15, 16, 19, 20, 21];

supply = [2188.42, 2188.42, 2188.42, 0, 0, 0, 0, 0, 0, 0, 0, 0, 0, 0, 0, 0, 0, 0, 0, 0, 0, 0];
demand = [0, 0, 0, 0, 0, 0, 0, 0, 376.83, 281.28, 324.13, 230.91, 385.98, 372.92, 495.24, 462.15, 476.28, 304.96, 447.31, 366.44, 486.16, 460.45];

max_capacity = [795, 1414, 3181];

install_cost = array2d(1..nA, 1..nD, [
  20, 24, 32,
  50, 62, 78,
  20, 24, 32,
  50, 62, 78,
  20, 24, 32,
  50, 62, 78,
  20, 24, 32,
  50, 62, 78,
  20, 24, 32,
  50, 62, 78,
  20, 24, 32,
  50, 62, 78,
  20, 24, 32,
  50, 62, 78,
  20, 24, 32,
  50, 62, 78,
  20, 24, 32,
  50, 62, 78,
  20, 24, 32,
  50, 62, 78,
  20, 24, 32,
  50, 62, 78,
  20, 24, 32,
  50, 62, 78,
  20, 24, 32,
  50, 62, 78,
  20, 24, 32,
  50, 62, 78,
  20, 24, 32,
  50, 62, 78,
  20, 24, 32,
  50, 62, 78,
  20, 24, 32,
  50, 62, 78,
  20, 24, 32,
  50, 62, 78,
  20, 24, 32,
  50, 62, 78,
  20, 24, 32,
  50, 62, 78,
  20, 24, 32,
  50, 62, 78,
  20, 24, 32,
  50, 62, 78,
  20, 24, 32,
  50, 62, 78,
  20, 24, 32,
  50, 62, 78,
  20, 24, 32,
  50, 62, 78
]);

trans_cost = [9.03, 13.63, 10.85, 6.27, 5.30, 9.48, 4.04, 13.49, 11.54, 6.59, 2.86, 12.06, 7.66, 11.71, 3.22, 6.20, 8.02, 8.14, 6.65, 9.87, 4.80, 7.57, 8.36, 9.54, 10.13, 4.63, 3.40, 11.83, 9, 5.75, 12.65, 8.35, 11.54, 8.20, 14.18, 13.27, 7.25, 10.91, 9.94, 12.11, 5.11, 10.06, 11.18, 2.72, 4.45, 1.88, 7.19, 10.15, 12.51, 8.22];
